Cost: 458
0-11-16-29-21-34-30-9-38-0
0-1-22-28-3-36-35-20-2-32-0
0-12-17-37-15-33-39-10-5-0
0-18-4-19-13-25-14-0
0-27-8-31-26-7-23-24-6-0
Cost: 458
0-11-16-29-21-34-30-9-38-0
0-1-22-28-3-36-35-20-2-32-0
0-12-17-37-15-33-39-10-5-0
0-18-4-19-13-25-14-0
0-27-8-31-26-7-23-24-6-0
Cost: 458
0-11-16-29-21-34-30-9-38-0
0-1-22-28-3-36-35-20-2-32-0
0-12-17-37-15-33-39-10-5-0
0-18-4-19-13-25-14-0
0-27-8-31-26-7-23-24-6-0
Cost: 458
0-11-16-29-21-34-30-9-38-0
0-1-22-28-3-36-35-20-2-32-0
0-12-17-37-15-33-39-10-5-0
0-18-4-19-13-25-14-0
0-27-8-31-26-7-23-24-6-0
Cost: 458
0-11-16-29-21-34-30-9-38-0
0-1-22-28-3-36-35-20-2-32-0
0-12-17-37-15-33-39-10-5-0
0-18-4-19-13-25-14-0
0-27-8-31-26-7-23-24-6-0
Cost: 458
0-11-16-29-21-34-30-9-38-0
0-1-22-28-3-36-35-20-2-32-0
0-12-17-37-15-33-39-10-5-0
0-18-4-19-13-25-14-0
0-27-8-31-26-7-23-24-6-0
Cost: 458
0-11-16-29-21-34-30-9-38-0
0-1-22-28-3-36-35-20-2-32-0
0-12-17-37-15-33-39-10-5-0
0-18-4-19-13-25-14-0
0-27-8-31-26-7-23-24-6-0
Cost: 458
0-11-16-29-21-34-30-9-38-0
0-1-22-28-3-36-35-20-2-32-0
0-12-17-37-15-33-39-10-5-0
0-18-4-19-13-25-14-0
0-27-8-31-26-7-23-24-6-0
Cost: 458
0-11-16-29-21-34-30-9-38-0
0-1-22-28-3-36-35-20-2-32-0
0-12-17-37-15-33-39-10-5-0
0-18-4-19-13-25-14-0
0-27-8-31-26-7-23-24-6-0
Cost: 458
0-11-16-29-21-34-30-9-38-0
0-1-22-28-3-36-35-20-2-32-0
0-12-17-37-15-33-39-10-5-0
0-18-4-19-13-25-14-0
0-27-8-31-26-7-23-24-6-0
Cost: 458
0-6-24-23-7-26-31-8-27-0
0-32-2-20-35-36-3-28-22-1-0
0-38-9-30-34-21-29-16-11-0
0-12-17-37-15-33-39-10-5-0
0-18-4-19-13-25-14-0
Cost: 458
0-6-24-23-7-26-31-8-27-0
0-32-2-20-35-36-3-28-22-1-0
0-38-9-30-34-21-29-16-11-0
0-12-17-37-15-33-39-10-5-0
0-18-4-19-13-25-14-0
Cost: 458
0-6-24-23-7-26-31-8-27-0
0-32-2-20-35-36-3-28-22-1-0
0-38-9-30-34-21-29-16-11-0
0-12-17-37-15-33-39-10-5-0
0-18-4-19-13-25-14-0
Cost: 458
0-5-10-39-33-15-37-17-12-0
0-1-22-28-3-36-35-20-2-32-0
0-18-4-19-13-25-14-0
0-11-16-29-21-34-30-9-38-0
0-6-24-23-7-26-31-8-27-0
Cost: 458
0-6-24-23-7-26-31-8-27-0
0-32-2-20-35-36-3-28-22-1-0
0-38-9-30-34-21-29-16-11-0
0-12-17-37-15-33-39-10-5-0
0-18-4-19-13-25-14-0
Cost: 458
0-6-24-23-7-26-31-8-27-0
0-32-2-20-35-36-3-28-22-1-0
0-38-9-30-34-21-29-16-11-0
0-12-17-37-15-33-39-10-5-0
0-18-4-19-13-25-14-0
Cost: 458
0-6-24-23-7-26-31-8-27-0
0-32-2-20-35-36-3-28-22-1-0
0-38-9-30-34-21-29-16-11-0
0-12-17-37-15-33-39-10-5-0
0-18-4-19-13-25-14-0
Cost: 458
0-11-16-29-21-34-30-9-38-0
0-27-8-31-26-7-23-24-6-0
0-1-22-28-3-36-35-20-2-32-0
0-18-4-19-13-25-14-0
0-12-17-37-15-33-39-10-5-0
Cost: 458
0-1-22-28-3-36-35-20-2-32-0
0-18-4-19-13-25-14-0
0-12-17-37-15-33-39-10-5-0
0-27-8-31-26-7-23-24-6-0
0-38-9-30-34-21-29-16-11-0
Cost: 458
0-1-22-28-3-36-35-20-2-32-0
0-18-4-19-13-25-14-0
0-12-17-37-15-33-39-10-5-0
0-27-8-31-26-7-23-24-6-0
0-38-9-30-34-21-29-16-11-0
Cost: 458
0-12-17-37-15-33-39-10-5-0
0-6-24-23-7-26-31-8-27-0
0-1-22-28-3-36-35-20-2-32-0
0-14-25-13-19-4-18-0
0-38-9-30-34-21-29-16-11-0
Cost: 458
0-12-17-37-15-33-39-10-5-0
0-6-24-23-7-26-31-8-27-0
0-1-22-28-3-36-35-20-2-32-0
0-14-25-13-19-4-18-0
0-38-9-30-34-21-29-16-11-0
Cost: 458
0-38-9-30-34-21-29-16-11-0
0-14-25-13-19-4-18-0
0-32-2-20-35-36-3-28-22-1-0
0-6-24-23-7-26-31-8-27-0
0-5-10-39-33-15-37-17-12-0
Cost: 458
0-12-17-37-15-33-39-10-5-0
0-6-24-23-7-26-31-8-27-0
0-1-22-28-3-36-35-20-2-32-0
0-14-25-13-19-4-18-0
0-38-9-30-34-21-29-16-11-0
Cost: 458
0-11-16-29-21-34-30-9-38-0
0-27-8-31-26-7-23-24-6-0
0-1-22-28-3-36-35-20-2-32-0
0-18-4-19-13-25-14-0
0-12-17-37-15-33-39-10-5-0
Cost: 458
0-1-22-28-3-36-35-20-2-32-0
0-18-4-19-13-25-14-0
0-12-17-37-15-33-39-10-5-0
0-27-8-31-26-7-23-24-6-0
0-38-9-30-34-21-29-16-11-0
Cost: 458
0-1-22-28-3-36-35-20-2-32-0
0-18-4-19-13-25-14-0
0-12-17-37-15-33-39-10-5-0
0-27-8-31-26-7-23-24-6-0
0-38-9-30-34-21-29-16-11-0
Cost: 458
0-38-9-30-34-21-29-16-11-0
0-5-10-39-33-15-37-17-12-0
0-1-22-28-3-36-35-20-2-32-0
0-6-24-23-7-26-31-8-27-0
0-18-4-19-13-25-14-0
Cost: 458
0-27-8-31-26-7-23-24-6-0
0-18-4-19-13-25-14-0
0-1-22-28-3-36-35-20-2-32-0
0-12-17-37-15-33-39-10-5-0
0-11-16-29-21-34-30-9-38-0
Cost: 458
0-38-9-30-34-21-29-16-11-0
0-6-24-23-7-26-31-8-27-0
0-12-17-37-15-33-39-10-5-0
0-1-22-28-3-36-35-20-2-32-0
0-14-25-13-19-4-18-0
Cost: 458
0-6-24-23-7-26-31-8-27-0
0-18-4-19-13-25-14-0
0-5-10-39-33-15-37-17-12-0
0-11-16-29-21-34-30-9-38-0
0-32-2-20-35-36-3-28-22-1-0
